LRP/teste.sol
# Solution for model LRP_D:/Victor/Pos-Graduacao/UFV/Project/Instances/Instances_Prodhon_LRP/test04.txt
# Objective value = 300
f(0,0) 0
f(1,0) 1
x(0,0,0) 0
x(0,1,0) 0
x(0,2,0) 0
x(1,0,0) 0
x(1,1,0) 0
x(1,2,0) 0
x(2,0,0) 0
x(2,1,0) 0
x(2,2,0) 1
y(0) 0
y(1) 1
u(0,0) 0
u(1,0) 0
u(2,0) 0
